letting n =  10
letting blocks =  [[1, 4], [1, 5], [1, 6], [2, 4], [2, 8], [2, 9], [3, 7], [3, 9], [3, 10], [4, 2], [5, 2], [5, 5], [5, 6], [5, 7], [5, 9], [5, 10], [6, 3], [6, 8], [6, 9], [6, 10], [8, 1], [10, 1]]
